#######################################
### Exact MIP solver for the HHCRSP ###
#######################################
-- Instance file: new-instances/HHCRSP_300_60_30_1.6_C_C.txt
-- Max threads: 4
-- Time limit: 999999 seconds
-- Use initial solution: No
Trivial flow violations prevented generating 1159095 variables.
Version identifier: 20.1.0.0 | 2020-11-10 | 9bedb6d68
CPXPARAM_Threads                                 4
CPXPARAM_TimeLimit                               999999
Parallel mode: deterministic, using up to 4 threads for concurrent optimization:
 * Starting dual Simplex on 1 thread...
 * Starting Barrier on 3 threads...
Tried aggregator 1 time.
LP Presolve eliminated 44898 rows and 9943 columns.
Reduced LP has 1186422 rows, 1126194 columns, and 26634085 nonzeros.
Presolve time = 29.51 sec. (5888.46 ticks)
Symmetry aggregator did 1897243 additional substitutions.

Iteration log . . .
Iteration:     1   Dual objective     =             0.000000

Dual crossover.
  Dual:  Fixing 1045 variables.
     1044 DMoves:  Infeasibility  3.28714833e-12  Objective  2.36666667e+02
        0 DMoves:  Infeasibility  1.29205905e-12  Objective  2.36666667e+02
  Dual:  Pushed 31, exchanged 1014.
  Primal:  Fixing 1041 variables.
     1040 PMoves:  Infeasibility  2.77555756e-17  Objective  2.36666667e+02
        0 PMoves:  Infeasibility  1.02695630e-15  Objective  2.36666667e+02
  Primal:  Pushed 912, exchanged 129.

Dual simplex solved model.


Solution status from MIP model:
-- Processing time: 48.272 sec.
-- Memory used: 1047.11 MB
-- Best bound: inf
-- Obj value: 236.667
-- Gap: inf%
-- Total distance: 710
-- Total tardiness: 0
-- Largest tardiness: 0
